data/solutions/recovery/wellformed/moderate/flexible/wellformed_moderate_instance89/25.sol
Elapsed time: 7.2
Upper bound: 7249.0
Planning weighted value: 438677.0
C[0]=7249.0
C[1]=7248.0
C[2]=7244.0
C[3]=7227.0
C[4]=7200.0
C[5]=7195.0
y[0]=5
y[1]=4
y[2]=1
y[3]=0
y[4]=3
y[5]=2
y[6]=1
y[7]=0
y[8]=0
y[9]=2
y[10]=3
y[11]=3
y[12]=3
y[13]=4
y[14]=3
y[15]=1
y[16]=0
y[17]=5
y[18]=5
y[19]=4
y[20]=1
y[21]=4
y[22]=5
y[23]=1
y[24]=4
y[25]=3
y[26]=0
y[27]=3
y[28]=5
y[29]=5
y[30]=4
y[31]=0
y[32]=4
y[33]=2
y[34]=1
y[35]=1
y[36]=2
y[37]=5
y[38]=2
y[39]=3
y[40]=0
y[41]=2
