data/solutions/recovery/wellformed/moderate/flexible/wellformed_moderate_instance89/25.log

Log started (V12.6.3.0) Fri Apr 20 19:27:50 2018

New value for default parallel thread count: 1

Problem '/tmp/tmp8qIQqx.pyomo.lp' read.
Read time = 0.00 sec. (0.13 ticks)

Problem name         : /tmp/tmp8qIQqx.pyomo.lp
Objective sense      : Minimize
Variables            :     260  [Nneg: 1,  Binary: 252,  General Integer: 7]
Objective nonzeros   :       1
Linear constraints   :      97  [Less: 48,  Equal: 49]
  Nonzeros           :    8917
  RHS nonzeros       :      85

Variables            : Min LB: 0.000000         Max UB: 1.000000       
Objective nonzeros   : Min   : 1.000000         Max   : 1.000000       
Linear constraints   :
  Nonzeros           : Min   : 1.000000         Max   : 1980.000       
  RHS nonzeros       : Min   : 1.000000         Max   : 5.000000       
Tried aggregator 2 times.
MIP Presolve eliminated 42 rows and 6 columns.
Aggregator did 7 substitutions.
Reduced MIP has 48 rows, 247 columns, and 693 nonzeros.
Reduced MIP has 246 binaries, 1 generals, 0 SOSs, and 0 indicators.
Presolve time = 0.00 sec. (2.20 ticks)
Found incumbent of value 43363.000000 after 0.00 sec. (2.69 ticks)
Probing time = 0.00 sec. (0.26 ticks)
Cover probing fixed 0 vars, tightened 4 bounds.
Tried aggregator 1 time.
Reduced MIP has 48 rows, 247 columns, and 693 nonzeros.
Reduced MIP has 246 binaries, 1 generals, 0 SOSs, and 0 indicators.
Presolve time = 0.00 sec. (0.41 ticks)
Probing time = 0.00 sec. (0.18 ticks)
Clique table members: 41.
MIP emphasis: balance optimality and feasibility.
MIP search method: dynamic search.
Parallel mode: none, using 1 thread.
Root relaxation solution time = 0.00 sec. (0.18 ticks)

        Nodes                                         Cuts/
   Node  Left     Objective  IInf  Best Integer    Best Bound    ItCnt     Gap

*     0+    0                        43363.0000     1980.0000            95.43%
      0     0     7227.1667     9    43363.0000     7227.1667        7   83.33%
*     0+    0                         9228.0000     7227.1667            21.68%
      0     0     7228.0000    15     9228.0000       Cuts: 8       34   21.67%
*     0+    0                         7886.0000     7228.0000             8.34%
      0     0     7228.0000    12     7886.0000      Cuts: 11       58    8.34%
      0     0     7228.0000    12     7886.0000       Cuts: 7       84    8.34%
      0     0     7228.0000    15     7886.0000       Cuts: 6      101    8.34%
*     0+    0                         7685.0000     7228.0000             5.95%
*     0+    0                         7635.0000     7228.0000             5.33%
*     0+    0                         7609.0000     7228.0000             5.01%
*     0+    0                         7517.0000     7228.0000             3.84%
*     0+    0                         7462.0000     7228.0000             3.14%
      0     2     7228.0000    10     7462.0000     7228.0000      101    3.14%
Elapsed time = 0.03 sec. (21.33 ticks, tree = 0.01 MB, solutions = 8)
*    69    47      integral     0     7429.0000     7228.0000      444    2.71%
*   530+  306                         7345.0000     7228.0000             1.59%
*   620+  344                         7324.0000     7228.0000             1.31%
*   720+  334                         7270.0000     7228.0000             0.58%
   1270   408     7230.0000    15     7270.0000     7228.0000     6387    0.58%
   1271   408     7230.0000    15     7270.0000     7228.0000     6387    0.58%
   1272   408     7230.0000    16     7270.0000     7228.0000     6391    0.58%
   1273   408     7230.0000    14     7270.0000     7228.0000     6396    0.58%
   1274   408     7230.0000    14     7270.0000     7228.0000     6397    0.58%
   1275   409     7230.0000    13     7270.0000     7228.0000     6398    0.58%
   1276   409     7230.0000    15     7270.0000     7228.0000     6404    0.58%
   1277   409     7230.0000    17     7270.0000     7228.0000     6408    0.58%
   1278   409     7230.0000    17     7270.0000     7228.0000     6410    0.58%
*  1670+  455                         7263.0000     7228.0000             0.48%
*  1770+  438                         7261.0000     7228.0000             0.45%
*  1770+  362                         7249.0000     7228.0000             0.29%
   2070   484     7239.7463    25     7249.0000     7228.0000    18737    0.29%
Elapsed time = 0.90 sec. (1024.59 ticks, tree = 0.13 MB, solutions = 15)
   3151  1050     7228.0000    49     7249.0000     7228.0000    48787    0.29%
   3152  1051     7228.0000    38     7249.0000     7228.0000    48859    0.29%
   3153  1052     7228.0000    49     7249.0000     7228.0000    48947    0.29%
   3154  1053     7228.0000    43     7249.0000     7228.0000    48968    0.29%
   3155  1054     7228.0000    41     7249.0000     7228.0000    48971    0.29%
   3156  1055     7228.0000    39     7249.0000     7228.0000    48991    0.29%
   3157  1056     7235.4935    38     7249.0000     7228.0000    49122    0.29%
   3158  1057     7235.5799    40     7249.0000     7228.0000    49137    0.29%
   3159  1058     7235.8347    40     7249.0000     7228.0000    49149    0.29%
   3160  1058     7235.8351    40     7249.0000     7228.0000    49150    0.29%
Elapsed time = 1.58 sec. (1987.22 ticks, tree = 0.42 MB, solutions = 15)
   4251  1547        cutoff           7249.0000     7228.0000    85072    0.29%
   4252  1548     7232.9474    45     7249.0000     7228.0000    85245    0.29%
   4253  1549     7232.9519    45     7249.0000     7228.0000    85249    0.29%
   4254  1550     7232.9930    43     7249.0000     7228.0000    85257    0.29%
   4255  1551     7233.8610    45     7249.0000     7228.0000    85274    0.29%
   4256  1552     7235.1927    39     7249.0000     7228.0000    85289    0.29%
   4257  1553     7236.3827    42     7249.0000     7228.0000    85296    0.29%
   4258  1554     7238.4261    40     7249.0000     7228.0000    85318    0.29%
   4259  1553        cutoff           7249.0000     7228.0000    85320    0.29%
   4260  1552        cutoff           7249.0000     7228.0000    85337    0.29%
Elapsed time = 2.22 sec. (2950.12 ticks, tree = 0.77 MB, solutions = 15)
   5117  1939     7233.9862    37     7249.0000     7228.0000   121234    0.29%
   5118  1940     7234.8898    39     7249.0000     7228.0000   121238    0.29%
   5119  1941     7235.5967    37     7249.0000     7228.0000   121250    0.29%
   5120  1942     7235.7530    32     7249.0000     7228.0000   121255    0.29%
   5121  1943     7235.8816    38     7249.0000     7228.0000   121261    0.29%
   5122  1942        cutoff           7249.0000     7228.0000   121271    0.29%
   5123  1941        cutoff           7249.0000     7228.0000   121296    0.29%
   5124  1940        cutoff           7249.0000     7228.0000   121540    0.29%
   5125  1941     7230.9623    50     7249.0000     7228.0000   121668    0.29%
   5126  1942     7230.9737    51     7249.0000     7228.0000   121673    0.29%
Elapsed time = 2.84 sec. (3916.07 ticks, tree = 0.98 MB, solutions = 15)
   5896  2301     7229.1733    45     7249.0000     7228.0000   153401    0.29%
   5897  2302     7229.4097    46     7249.0000     7228.0000   153416    0.29%
   5898  2303     7229.4201    45     7249.0000     7228.0000   153418    0.29%
   5899  2304     7229.5466    43     7249.0000     7228.0000   153424    0.29%
   5900  2305     7229.7376    38     7249.0000     7228.0000   153438    0.29%
   5901  2306     7229.8511    45     7249.0000     7228.0000   153457    0.29%
   5902  2307     7229.8569    46     7249.0000     7228.0000   153459    0.29%
   5903  2308     7229.8615    46     7249.0000     7228.0000   153460    0.29%
   5904  2309     7232.5347    44     7249.0000     7228.0000   153493    0.29%
   5905  2310     7233.2269    46     7249.0000     7228.0000   153501    0.29%
Elapsed time = 3.46 sec. (4878.18 ticks, tree = 1.23 MB, solutions = 15)
   6701  2684        cutoff           7249.0000     7228.0000   185307    0.29%
   6702  2683        cutoff           7249.0000     7228.0000   185395    0.29%
   6703  2682        cutoff           7249.0000     7228.0000   185570    0.29%
   6704  2683     7228.0000    62     7249.0000     7228.0000   185731    0.29%
   6705  2684     7228.5554    60     7249.0000     7228.0000   185940    0.29%
   6706  2685     7228.7444    60     7249.0000     7228.0000   185972    0.29%
   6707  2686     7228.7489    59     7249.0000     7228.0000   185974    0.29%
   6708  2687     7228.7509    55     7249.0000     7228.0000   185976    0.29%
   6709  2688     7228.7755    54     7249.0000     7228.0000   185996    0.29%
   6710  2689     7232.0111    50     7249.0000     7228.0000   186077    0.29%
Elapsed time = 4.10 sec. (5859.36 ticks, tree = 1.37 MB, solutions = 15)
   7548  2824        cutoff           7249.0000     7229.1106   213663    0.27%
   7549  2825     7232.1775    45     7249.0000     7229.1218   213732    0.27%
   7550  2826     7233.5359    51     7249.0000     7229.1218   213767    0.27%
   7551  2827     7233.5413    45     7249.0000     7229.1218   213769    0.27%
   7552  2828     7233.8171    58     7249.0000     7229.1218   213797    0.27%
   7553  2829     7233.8287    56     7249.0000     7229.1218   213804    0.27%
   7554  2830     7233.9228    51     7249.0000     7229.1218   213814    0.27%
   7555  2831     7233.9252    51     7249.0000     7229.1218   213815    0.27%
   7556  2832     7233.9470    49     7249.0000     7229.1218   213820    0.27%
   7557  2833     7233.9512    49     7249.0000     7229.1218   213821    0.27%
Elapsed time = 4.72 sec. (6822.01 ticks, tree = 1.51 MB, solutions = 15)
   8478  2514        cutoff           7249.0000     7230.9052   243410    0.25%
   8479  2514     7245.6820    44     7249.0000     7230.9077   243475    0.25%
   8480  2513        cutoff           7249.0000     7230.9077   243489    0.25%
   8481  2512        cutoff           7249.0000     7230.9123   243521    0.25%
   8482  2511        cutoff           7249.0000     7230.9131   243563    0.25%
   8483  2510        cutoff           7249.0000     7230.9156   243629    0.25%
   8484  2509        cutoff           7249.0000     7230.9159   243641    0.25%
   8485  2508        cutoff           7249.0000     7230.9201   243669    0.25%
   8486  2507        cutoff           7249.0000     7230.9237   243687    0.25%
   8487  2508     7237.1210    21     7249.0000     7230.9238   243733    0.25%
Elapsed time = 5.34 sec. (7787.75 ticks, tree = 1.32 MB, solutions = 15)
   9761  1875        cutoff           7249.0000     7234.5709   275888    0.20%
   9762  1874        cutoff           7249.0000     7234.5750   275903    0.20%
   9763  1873        cutoff           7249.0000     7234.5850   275952    0.20%
   9764  1872        cutoff           7249.0000     7234.5886   275961    0.20%
   9765  1871        cutoff           7249.0000     7234.5915   275971    0.20%
   9766  1870        cutoff           7249.0000     7234.6059   275986    0.20%
   9767  1869        cutoff           7249.0000     7234.6068   275988    0.20%
   9768  1868        cutoff           7249.0000     7234.6102   276003    0.20%
   9769  1867        cutoff           7249.0000     7234.6130   276037    0.20%
   9770  1866        cutoff           7249.0000     7234.6341   276057    0.20%
Elapsed time = 5.98 sec. (8746.56 ticks, tree = 1.04 MB, solutions = 15)
  10651  1101        cutoff           7249.0000     7238.3419   291150    0.15%
  10652  1100        cutoff           7249.0000     7238.3446   291161    0.15%
  10653  1099        cutoff           7249.0000     7238.3489   291198    0.15%
  10654  1098        cutoff           7249.0000     7238.3499   291210    0.15%
  10655  1098     7244.2976    47     7249.0000     7238.3560   291280    0.15%
  10656  1099     7244.2976    44     7249.0000     7238.3560   291285    0.15%
  10657  1100     7244.2987    44     7249.0000     7238.3560   291286    0.15%
  10658  1101     7244.3252    45     7249.0000     7238.3560   291289    0.15%
  10659  1101     7247.7549    42     7249.0000     7238.3560   291311    0.15%

Cover cuts applied:  110
Mixed integer rounding cuts applied:  67
Zero-half cuts applied:  1
Gomory fractional cuts applied:  1

Root node processing (before b&c):
  Real time             =    0.03 sec. (21.34 ticks)
Sequential b&c:
  Real time             =    7.15 sec. (10066.61 ticks)
                          ------------
Total (root+branch&cut) =    7.18 sec. (10087.95 ticks)

Solution pool: 15 solutions saved.

MIP - Integer optimal solution:  Objective =  7.2490000000e+03
Solution time =    7.18 sec.  Iterations = 299836  Nodes = 11832
Deterministic time = 10087.96 ticks  (1404.92 ticks/sec)


Incumbent solution written to file '/tmp/tmpCjQ6QM.cplex.sol'.
